
Gurobi 11.0.1 (linux64, Java) logging started Sa 30 Mär 2024 20:13:41


Gurobi 11.0.1 (linux64, Java) logging started Sa 30 Mär 2024 20:15:56


Gurobi 11.0.1 (linux64, Java) logging started Mi 03 Apr 2024 21:01:27


Gurobi 11.0.1 (linux64) logging started Mi 03 Apr 2024 21:03:18

Set parameter LogFile to value "LP.log"

Gurobi 11.0.1 (linux64, Java) logging started Mi 03 Apr 2024 21:03:40


Gurobi 11.0.1 (linux64, Java) logging started Mi 03 Apr 2024 21:06:52


Gurobi 11.0.1 (linux64, Java) logging started Fr 05 Apr 2024 17:35:00


Gurobi 11.0.1 (linux64, Java) logging started Fr 05 Apr 2024 18:39:09


Gurobi 11.0.1 (linux64, Java) logging started Fr 05 Apr 2024 18:58:56


Gurobi 11.0.1 (linux64, Java) logging started Fr 05 Apr 2024 19:01:01


Gurobi 11.0.1 (linux64, Java) logging started Fr 05 Apr 2024 19:09:06


Gurobi 11.0.1 (linux64, Java) logging started Fr 05 Apr 2024 19:09:31


Gurobi 11.0.1 (linux64, Java) logging started Fr 05 Apr 2024 19:10:25


Gurobi 11.0.1 (linux64, Java) logging started Fr 05 Apr 2024 19:11:18


Gurobi 11.0.1 (win64, Java) logging started Fri Apr  5 19:15:33 2024


Gurobi 11.0.1 (linux64, Java) logging started Fr 05 Apr 2024 19:30:55


Gurobi 11.0.1 (linux64, Java) logging started Fr 05 Apr 2024 19:31:22


Gurobi 11.0.1 (linux64, Java) logging started Fr 05 Apr 2024 19:57:33


Gurobi 11.0.1 (win64, Java) logging started Fri Apr  5 20:01:15 2024


Gurobi 11.0.1 (linux64, Java) logging started Fr 05 Apr 2024 20:03:45


Gurobi 11.0.1 (linux64, Java) logging started Fr 05 Apr 2024 20:57:51


Gurobi 11.0.1 (linux64, Java) logging started Fr 05 Apr 2024 21:55:12


Gurobi 11.0.1 (linux64, Java) logging started So 07 Apr 2024 17:49:28


Gurobi 11.0.1 (linux64, Java) logging started So 07 Apr 2024 17:51:33


Gurobi 11.0.1 (linux64, Java) logging started So 07 Apr 2024 17:53:18


Gurobi 11.0.1 (linux64, Java) logging started So 07 Apr 2024 17:53:41


Gurobi 11.0.1 (linux64, Java) logging started So 07 Apr 2024 17:54:33


Gurobi 11.0.1 (linux64, Java) logging started So 07 Apr 2024 17:55:00


Gurobi 11.0.1 (linux64, Java) logging started So 07 Apr 2024 17:55:15


Gurobi 11.0.1 (linux64, Java) logging started So 07 Apr 2024 17:55:22


Gurobi 11.0.1 (linux64, Java) logging started So 07 Apr 2024 17:55:55


Gurobi 11.0.1 (linux64, Java) logging started So 07 Apr 2024 17:56:07


Gurobi 11.0.1 (linux64, Java) logging started Di 09 Apr 2024 10:36:06


Gurobi 11.0.1 (linux64, Java) logging started Di 09 Apr 2024 21:08:20


Gurobi 11.0.1 (linux64, Java) logging started Di 09 Apr 2024 21:08:49


Gurobi 11.0.1 (linux64, Java) logging started Di 09 Apr 2024 21:09:09


Gurobi 11.0.1 (linux64, Java) logging started Di 09 Apr 2024 21:11:42


Gurobi 11.0.1 (linux64, Java) logging started Di 09 Apr 2024 21:11:54


Gurobi 11.0.1 (linux64, Java) logging started Di 09 Apr 2024 21:12:33


Gurobi 11.0.1 (linux64, Java) logging started Di 09 Apr 2024 21:12:50


Gurobi 11.0.1 (linux64, Java) logging started Di 09 Apr 2024 21:13:38


Gurobi 11.0.1 (linux64, Java) logging started Di 09 Apr 2024 21:15:25


Gurobi 11.0.1 (linux64, Java) logging started Mi 10 Apr 2024 16:59:32


Gurobi 11.0.1 (linux64, Java) logging started Mi 10 Apr 2024 17:00:01


Gurobi 11.0.1 (linux64, Java) logging started Mi 10 Apr 2024 20:03:01


Gurobi 11.0.1 (linux64, Java) logging started Mi 10 Apr 2024 21:24:12


Gurobi 11.0.1 (linux64, Java) logging started Mi 10 Apr 2024 21:31:37


Gurobi 11.0.1 (linux64, Java) logging started Do 11 Apr 2024 14:42:58


Gurobi 11.0.1 (linux64, Java) logging started Do 11 Apr 2024 14:43:48


Gurobi 11.0.1 (linux64, Java) logging started Do 11 Apr 2024 14:45:01


Gurobi 11.0.1 (linux64, Java) logging started Do 11 Apr 2024 14:46:37


Gurobi 11.0.1 (linux64, Java) logging started Do 11 Apr 2024 18:23:44


Gurobi 11.0.1 (linux64, Java) logging started Do 11 Apr 2024 18:27:24


Gurobi 11.0.1 (linux64, Java) logging started Do 11 Apr 2024 18:30:59


Gurobi 11.0.1 (linux64, Java) logging started Do 11 Apr 2024 18:31:32


Gurobi 11.0.1 (linux64, Java) logging started Do 11 Apr 2024 18:32:53


Gurobi 11.0.1 (linux64, Java) logging started Do 11 Apr 2024 18:36:48


Gurobi 11.0.1 (linux64, Java) logging started Do 11 Apr 2024 18:38:42


Gurobi 11.0.1 (linux64, Java) logging started Do 11 Apr 2024 18:39:36


Gurobi 11.0.1 (linux64, Java) logging started Do 11 Apr 2024 18:39:47


Gurobi 11.0.1 (linux64, Java) logging started Do 11 Apr 2024 18:40:14


Gurobi 11.0.1 (linux64, Java) logging started Do 11 Apr 2024 20:02:05


Gurobi 11.0.1 (linux64, Java) logging started Do 11 Apr 2024 20:02:27


Gurobi 11.0.1 (linux64, Java) logging started Do 11 Apr 2024 20:24:04


Gurobi 11.0.1 (linux64, Java) logging started Do 11 Apr 2024 20:29:15


Gurobi 11.0.1 (linux64, Java) logging started Do 11 Apr 2024 20:50:43


Gurobi 11.0.1 (linux64, Java) logging started Do 11 Apr 2024 20:53:01


Gurobi 11.0.1 (linux64, Java) logging started Do 11 Apr 2024 20:54:09


Gurobi 11.0.1 (linux64, Java) logging started Do 11 Apr 2024 20:58:51


Gurobi 11.0.1 (linux64, Java) logging started Do 11 Apr 2024 20:59:51


Gurobi 11.0.1 (linux64, Java) logging started Do 11 Apr 2024 21:00:30


Gurobi 11.0.1 (linux64, Java) logging started Do 11 Apr 2024 21:07:51


Gurobi 11.0.1 (linux64, Java) logging started Do 11 Apr 2024 21:14:37


Gurobi 11.0.1 (linux64, Java) logging started Do 11 Apr 2024 21:15:58


Gurobi 11.0.1 (linux64, Java) logging started Do 11 Apr 2024 21:20:32


Gurobi 11.0.1 (linux64, Java) logging started Do 11 Apr 2024 21:26:57


Gurobi 11.0.1 (linux64, Java) logging started Do 11 Apr 2024 21:27:35


Gurobi 11.0.1 (linux64, Java) logging started Do 11 Apr 2024 21:28:10


Gurobi 11.0.1 (linux64, Java) logging started Do 11 Apr 2024 21:30:56


Gurobi 11.0.1 (linux64, Java) logging started Fr 12 Apr 2024 22:04:40


Gurobi 11.0.1 (linux64, Java) logging started Fr 12 Apr 2024 22:15:42


Gurobi 11.0.1 (linux64, Java) logging started Fr 12 Apr 2024 22:17:43


Gurobi 11.0.1 (linux64, Java) logging started Sa 13 Apr 2024 18:45:08


Gurobi 11.0.1 (linux64, Java) logging started Sa 13 Apr 2024 18:47:23


Gurobi 11.0.1 (linux64, Java) logging started Sa 13 Apr 2024 18:48:17


Gurobi 11.0.1 (linux64, Java) logging started Sa 13 Apr 2024 18:50:03


Gurobi 11.0.1 (linux64, Java) logging started Sa 13 Apr 2024 18:53:53


Gurobi 11.0.1 (linux64, Java) logging started Sa 13 Apr 2024 20:48:27


Gurobi 11.0.1 (linux64, Java) logging started Sa 13 Apr 2024 20:49:26


Gurobi 11.0.1 (linux64, Java) logging started Sa 13 Apr 2024 20:53:58


Gurobi 11.0.1 (linux64, Java) logging started Sa 13 Apr 2024 20:55:12


Gurobi 11.0.1 (linux64, Java) logging started Sa 13 Apr 2024 20:56:46


Gurobi 11.0.1 (linux64, Java) logging started Sa 13 Apr 2024 20:58:38


Gurobi 11.0.1 (linux64, Java) logging started Sa 13 Apr 2024 20:58:43


Gurobi 11.0.1 (linux64, Java) logging started Sa 13 Apr 2024 20:59:53


Gurobi 11.0.1 (linux64, Java) logging started Sa 13 Apr 2024 21:00:00


Gurobi 11.0.1 (linux64, Java) logging started Sa 13 Apr 2024 21:02:12


Gurobi 11.0.1 (linux64, Java) logging started Sa 13 Apr 2024 21:04:54


Gurobi 11.0.1 (linux64, Java) logging started Sa 13 Apr 2024 21:05:26


Gurobi 11.0.1 (linux64, Java) logging started Sa 13 Apr 2024 21:05:46


Gurobi 11.0.1 (linux64, Java) logging started Sa 13 Apr 2024 21:06:23


Gurobi 11.0.1 (linux64, Java) logging started Sa 13 Apr 2024 21:06:36


Gurobi 11.0.1 (linux64, Java) logging started Sa 13 Apr 2024 21:06:49


Gurobi 11.0.1 (linux64, Java) logging started Sa 13 Apr 2024 21:06:59


Gurobi 11.0.1 (linux64, Java) logging started Sa 13 Apr 2024 21:07:08


Gurobi 11.0.1 (linux64, Java) logging started Sa 13 Apr 2024 21:16:42


Gurobi 11.0.1 (linux64, Java) logging started Sa 13 Apr 2024 21:30:52


Gurobi 11.0.1 (linux64, Java) logging started Sa 13 Apr 2024 21:32:27


Gurobi 11.0.1 (linux64, Java) logging started Sa 13 Apr 2024 21:33:50


Gurobi 11.0.1 (linux64, Java) logging started Sa 13 Apr 2024 21:34:16


Gurobi 11.0.1 (linux64, Java) logging started Sa 13 Apr 2024 21:38:30


Gurobi 11.0.1 (linux64, Java) logging started Sa 13 Apr 2024 21:39:04


Gurobi 11.0.1 (linux64, Java) logging started So 14 Apr 2024 10:42:04


Gurobi 11.0.1 (linux64, Java) logging started So 14 Apr 2024 10:42:49


Gurobi 11.0.1 (linux64, Java) logging started So 14 Apr 2024 13:20:57


Gurobi 11.0.1 (linux64, Java) logging started So 14 Apr 2024 13:23:00


Gurobi 11.0.1 (linux64, Java) logging started So 14 Apr 2024 13:23:23


Gurobi 11.0.1 (linux64, Java) logging started So 14 Apr 2024 13:24:00


Gurobi 11.0.1 (linux64, Java) logging started So 14 Apr 2024 13:24:42


Gurobi 11.0.1 (linux64, Java) logging started So 14 Apr 2024 13:26:11


Gurobi 11.0.1 (linux64, Java) logging started So 14 Apr 2024 13:27:27


Gurobi 11.0.1 (linux64, Java) logging started So 14 Apr 2024 13:27:56


Gurobi 11.0.1 (linux64, Java) logging started So 14 Apr 2024 13:29:00


Gurobi 11.0.1 (linux64, Java) logging started So 14 Apr 2024 13:29:27


Gurobi 11.0.1 (linux64, Java) logging started So 14 Apr 2024 13:30:12


Gurobi 11.0.1 (linux64, Java) logging started So 14 Apr 2024 13:32:09


Gurobi 11.0.1 (linux64, Java) logging started So 14 Apr 2024 13:32:47


Gurobi 11.0.1 (linux64, Java) logging started So 14 Apr 2024 13:33:19


Gurobi 11.0.1 (linux64, Java) logging started So 14 Apr 2024 13:35:13


Gurobi 11.0.1 (linux64, Java) logging started So 14 Apr 2024 13:37:37


Gurobi 11.0.1 (linux64, Java) logging started So 14 Apr 2024 13:42:52


Gurobi 11.0.1 (linux64, Java) logging started So 14 Apr 2024 13:45:52


Gurobi 11.0.1 (linux64, Java) logging started So 14 Apr 2024 13:47:45


Gurobi 11.0.1 (linux64, Java) logging started So 14 Apr 2024 13:48:05


Gurobi 11.0.1 (linux64, Java) logging started So 14 Apr 2024 13:50:48


Gurobi 11.0.1 (win64, Java) logging started Mon Apr 15 22:41:06 2024


Gurobi 11.0.1 (win64, Java) logging started Mon Apr 15 22:42:00 2024


Gurobi 11.0.1 (win64, Java) logging started Mon Apr 15 23:38:03 2024


Gurobi 11.0.1 (win64, Java) logging started Mon Apr 15 23:38:21 2024


Gurobi 11.0.1 (win64, Java) logging started Mon Apr 15 23:43:16 2024


Gurobi 11.0.1 (win64, Java) logging started Tue Apr 16 18:21:34 2024


Gurobi 11.0.1 (win64, Java) logging started Tue Apr 16 18:36:40 2024


Gurobi 11.0.1 (win64, Java) logging started Tue Apr 16 18:36:59 2024


Gurobi 11.0.1 (win64, Java) logging started Tue Apr 16 18:37:20 2024


Gurobi 11.0.1 (win64, Java) logging started Tue Apr 16 18:51:17 2024


Gurobi 11.0.1 (win64, Java) logging started Tue Apr 16 18:51:32 2024


Gurobi 11.0.1 (win64, Java) logging started Tue Apr 16 18:54:20 2024


Gurobi 11.0.1 (win64, Java) logging started Tue Apr 16 18:55:31 2024


Gurobi 11.0.1 (win64, Java) logging started Tue Apr 16 19:21:08 2024


Gurobi 11.0.1 (win64, Java) logging started Tue Apr 16 19:22:15 2024


Gurobi 11.0.1 (win64, Java) logging started Tue Apr 16 19:22:50 2024


Gurobi 11.0.1 (win64, Java) logging started Tue Apr 16 19:23:33 2024


Gurobi 11.0.1 (win64, Java) logging started Tue Apr 16 19:24:29 2024


Gurobi 11.0.1 (win64, Java) logging started Tue Apr 16 19:25:48 2024


Gurobi 11.0.1 (win64, Java) logging started Tue Apr 16 19:26:22 2024


Gurobi 11.0.1 (linux64, Java) logging started Mi 17 Apr 2024 16:11:28


Gurobi 11.0.1 (linux64, Java) logging started Mi 17 Apr 2024 16:11:45


Gurobi 11.0.1 (linux64, Java) logging started Mi 17 Apr 2024 16:16:43


Gurobi 11.0.1 (linux64, Java) logging started Fr 19 Apr 2024 15:47:31


Gurobi 11.0.1 (linux64, Java) logging started Fr 19 Apr 2024 15:50:18


Gurobi 11.0.1 (linux64, Java) logging started Fr 19 Apr 2024 15:55:53


Gurobi 11.0.1 (linux64, Java) logging started Mi 24 Apr 2024 08:05:33


Gurobi 11.0.1 (linux64, Java) logging started Mi 24 Apr 2024 08:06:13


Gurobi 11.0.1 (linux64, Java) logging started Mi 24 Apr 2024 08:08:03


Gurobi 11.0.1 (linux64, Java) logging started Mi 24 Apr 2024 08:09:03


Gurobi 11.0.1 (linux64, Java) logging started Mi 24 Apr 2024 08:12:28


Gurobi 11.0.1 (linux64, Java) logging started Fr 03 Mai 2024 19:03:49


Gurobi 11.0.1 (linux64, Java) logging started Fr 03 Mai 2024 19:07:03


Gurobi 11.0.1 (linux64, Java) logging started Fr 03 Mai 2024 19:09:37


Gurobi 11.0.1 (linux64, Java) logging started Fr 03 Mai 2024 19:15:56


Gurobi 11.0.1 (linux64, Java) logging started Fr 03 Mai 2024 19:32:07


Gurobi 11.0.1 (linux64, Java) logging started Fr 03 Mai 2024 19:33:05


Gurobi 11.0.1 (linux64, Java) logging started Fr 03 Mai 2024 19:34:01


Gurobi 11.0.1 (linux64, Java) logging started Fr 03 Mai 2024 19:34:42


Gurobi 11.0.1 (linux64, Java) logging started Fr 03 Mai 2024 19:34:57


Gurobi 11.0.1 (linux64, Java) logging started Fr 03 Mai 2024 19:35:29


Gurobi 11.0.1 (linux64, Java) logging started Fr 03 Mai 2024 19:36:30


Gurobi 11.0.1 (linux64, Java) logging started Fr 03 Mai 2024 19:36:47


Gurobi 11.0.1 (linux64, Java) logging started Fr 03 Mai 2024 19:37:52


Gurobi 11.0.1 (linux64, Java) logging started Fr 03 Mai 2024 19:38:36


Gurobi 11.0.1 (linux64, Java) logging started Fr 03 Mai 2024 19:41:45


Gurobi 11.0.1 (linux64, Java) logging started Fr 03 Mai 2024 19:43:54


Gurobi 11.0.1 (win64, Java) logging started Thu May  9 17:56:09 2024


Gurobi 11.0.1 (win64, Java) logging started Thu May  9 17:57:46 2024


Gurobi 11.0.1 (win64, Java) logging started Thu May  9 18:10:45 2024


Gurobi 11.0.1 (win64, Java) logging started Fri May 10 20:22:15 2024


Gurobi 11.0.1 (win64, Java) logging started Fri May 10 20:24:05 2024


Gurobi 11.0.1 (win64, Java) logging started Fri May 10 20:25:25 2024


Gurobi 11.0.1 (win64, Java) logging started Fri May 10 20:25:34 2024


Gurobi 11.0.1 (win64, Java) logging started Fri May 10 20:25:49 2024


Gurobi 11.0.1 (win64, Java) logging started Fri May 10 20:28:00 2024


Gurobi 11.0.1 (win64, Java) logging started Fri May 10 20:28:17 2024


Gurobi 11.0.1 (win64, Java) logging started Fri May 10 20:38:41 2024


Gurobi 11.0.1 (win64, Java) logging started Fri May 10 20:55:42 2024


Gurobi 11.0.1 (win64, Java) logging started Fri May 10 20:56:00 2024


Gurobi 11.0.1 (win64, Java) logging started Fri May 10 20:57:33 2024


Gurobi 11.0.1 (win64, Java) logging started Fri May 10 21:22:40 2024

